n_res = 5;
n_events = 52;
n_prec = 171;
source = 1;
sink = 52;
min_lvl = [-2, 4, -9, -5, -16];
max_lvl = [8, 14, 2, 5, -3];
rr = [| 0, 0, -1, 0, 0, 0, -1, 0, -1, -2, 0, 2, 0, -2, 1, 0, 0, 2, -1, -2, 1, 0, 0, 2, 2, 1, 1, 2, 1, 0, 0, 2, 1, -2, -2, 0, 0, 0, 0, 0, 0, 0, 1, 2, 1, -1, 1, 2, -2, 0, 0, 0
      | 0, 0, 0, 1, 0, 2, 0, -2, -1, 1, 0, -2, 0, 0, -2, 0, 0, -1, 2, 1, 0, 0, 0, 2, -1, -1, 1, 0, 2, 0, 2, -2, -2, 0, -2, 1, 2, 0, 2, 2, -1, 0, 1, 2, 0, -2, -1, 2, 2, 0, 0, 0
      | 0, -1, 0, 0, 2, 0, 0, 0, -1, 0, 2, 0, -2, 0, 2, 1, -1, 0, 2, 0, 0, 1, 0, 2, -1, 0, -2, 0, 0, -2, -1, 0, 0, 1, -2, -1, 0, -2, 0, 2, -2, -1, 0, -2, -1, 2, -1, 0, -2, 2, -1, 0
      | 0, 0, 0, 2, 0, -1, -2, 0, 1, 1, -1, 1, 1, 0, -1, 0, -1, 0, -1, 2, 1, -2, 0, 1, 1, 2, -2, 0, 1, 1, 0, 0, 0, 0, 0, 0, 0, 0, 1, 1, 0, -1, -2, 1, -2, 2, 1, -1, -2, 1, 0, 0
      | 0, -1, -1, 1, 0, -1, 0, 2, -2, 0, 0, 2, -2, 0, -1, -2, 1, -1, 0, 0, -2, 0, -1, 0, -1, 0, 1, 0, 1, -1, 0, -2, 0, -1, 0, 0, 0, 0, -2, 0, -1, 0, -2, 2, 0, 0, -2, 0, 2, -1, 1, 0 |];
prec = [| 1, 0, 5
        | 1, 0, 4
        | 1, 0, 6
        | 1, 0, 7
        | 1, 0, 3
        | 1, 0, 2
        | 2, 1, 37
        | 3, 0, 51
        | 3, 3, 43
        | 3, 6, 39
        | 4, 4, 27
        | 5, 22, 49
        | 6, 9, 49
        | 6, 22, 46
        | 6, 4, 47
        | 6, 1, 27
        | 6, 21, 35
        | 6, 3, 39
        | 7, -3, 28
        | 7, 6, 19
        | 7, 11, 38
        | 7, 10, 32
        | 8, -2, 17
        | 8, -185, 6
        | 8, 7, 35
        | 8, 3, 29
        | 8, 5, 42
        | 9, -363, 25
        | 9, -391, 10
        | 9, 3, 44
        | 9, -345, 39
        | 9, 0, 33
        | 10, 0, 36
        | 10, 11, 44
        | 10, 9, 12
        | 10, 11, 16
        | 11, 8, 45
        | 11, 0, 29
        | 12, 2, 47
        | 13, -3, 35
        | 13, 12, 24
        | 13, 9, 41
        | 13, 0, 30
        | 13, 7, 49
        | 14, 22, 45
        | 14, -3, 38
        | 15, 0, 28
        | 16, 15, 24
        | 16, -5, 35
        | 16, -279, 26
        | 16, -8, 31
        | 16, 8, 46
        | 17, 20, 11
        | 17, -2, 51
        | 17, 15, 45
        | 18, -2, 26
        | 18, -2, 34
        | 18, -4, 24
        | 19, 25, 23
        | 19, 16, 41
        | 19, 6, 9
        | 20, -254, 28
        | 20, -365, 7
        | 20, -1, 35
        | 21, -1, 18
        | 21, 6, 38
        | 22, 9, 30
        | 22, 0, 51
        | 23, 0, 50
        | 23, 9, 46
        | 23, 0, 34
        | 24, 8, 20
        | 24, 2, 38
        | 24, 9, 35
        | 24, 8, 33
        | 24, -169, 18
        | 24, 3, 22
        | 25, 0, 22
        | 26, 16, 46
        | 26, 0, 16
        | 26, 7, 48
        | 26, 17, 12
        | 27, 1, 25
        | 28, -3, 26
        | 28, 13, 34
        | 28, 4, 21
        | 28, 0, 47
        | 29, 13, 34
        | 29, 22, 44
        | 30, -260, 27
        | 30, -1, 9
        | 30, 20, 12
        | 31, -178, 40
        | 31, 23, 46
        | 31, 17, 45
        | 31, -298, 11
        | 32, 2, 34
        | 32, 3, 45
        | 32, 5, 35
        | 32, 4, 44
        | 32, 2, 13
        | 32, -1, 46
        | 33, -233, 43
        | 33, -222, 30
        | 33, -1, 45
        | 33, -379, 40
        | 34, 16, 46
        | 34, -5, 45
        | 34, 12, 38
        | 34, -1, 44
        | 34, -368, 32
        | 34, -2, 31
        | 35, 0, 9
        | 35, -268, 24
        | 35, 2, 44
        | 35, 2, 51
        | 35, -203, 6
        | 35, -305, 10
        | 35, 0, 45
        | 36, -3, 38
        | 36, -3, 14
        | 37, 10, 32
        | 37, 1, 29
        | 37, 3, 25
        | 37, 0, 49
        | 37, 4, 35
        | 38, 0, 48
        | 38, 0, 45
        | 39, 9, 35
        | 39, 2, 8
        | 39, 4, 47
        | 39, 7, 48
        | 39, 14, 46
        | 40, 1, 11
        | 40, -4, 15
        | 41, -377, 2
        | 41, 0, 22
        | 41, 16, 40
        | 41, 8, 11
        | 41, 4, 47
        | 41, -256, 32
        | 42, 3, 17
        | 42, 1, 31
        | 43, 5, 10
        | 43, 4, 47
        | 44, -380, 3
        | 44, 22, 45
        | 44, 3, 33
        | 44, -282, 17
        | 44, -400, 42
        | 44, -283, 9
        | 44, -308, 8
        | 45, 4, 52
        | 46, 4, 52
        | 46, -330, 23
        | 46, -259, 31
        | 46, -390, 18
        | 47, 8, 52
        | 48, 4, 52
        | 49, -290, 6
        | 49, -300, 5
        | 49, 3, 52
        | 49, -263, 32
        | 50, -295, 19
        | 50, 5, 52
        | 51, -278, 27
        | 51, -324, 32
        | 51, -400, 7
        | 51, -331, 4
        | 51, -276, 18
        | 51, 8, 52 |];
